(set-info :smt-lib-version 2.6)
(set-logic BV)
(set-info :source | 
Hardware fixpoint check problems.
These benchmarks stem from an evaluation described in Wintersteiger, Hamadi, de Moura: Efficiently solving quantified bit-vector formulas, FMSD 42(1), 2013.
The hardware models that were used are from the VCEGAR benchmark suite (see www.cprover.org/hardware/).
 |)
(set-info :category "industrial")
(set-info :status unsat)
(assert (forall ((Verilog__main.dataOut_64_0 (_ BitVec 32))) (forall ((Verilog__main.stageOne_64_0 (_ BitVec 32))) (forall ((Verilog__main.stageTwo_64_0 (_ BitVec 32))) (forall ((Verilog__main.tmp_stageOne_64_0 (_ BitVec 32))) (forall ((Verilog__main.tmp_stageTwo_64_0 (_ BitVec 32))) (forall ((Verilog__main.dataOut_64_1 (_ BitVec 32))) (forall ((Verilog__main.reset_64_0 Bool)) (forall ((Verilog__main.stageOne_64_1 (_ BitVec 32))) (forall ((Verilog__main.dataIn_64_0 (_ BitVec 32))) (forall ((Verilog__main.c1_64_0 (_ BitVec 32))) (forall ((Verilog__main.stageTwo_64_1 (_ BitVec 32))) (forall ((Verilog__main.c2_64_0 (_ BitVec 32))) (forall ((Verilog__main.tmp_stageOne_64_1 (_ BitVec 32))) (forall ((Verilog__main.tmp_stageTwo_64_1 (_ BitVec 32))) (exists ((Verilog__main.dataOut_64_0_39_ (_ BitVec 32))) (exists ((Verilog__main.stageOne_64_0_39_ (_ BitVec 32))) (exists ((Verilog__main.stageTwo_64_0_39_ (_ BitVec 32))) (exists ((Verilog__main.tmp_stageOne_64_0_39_ (_ BitVec 32))) (exists ((Verilog__main.tmp_stageTwo_64_0_39_ (_ BitVec 32))) (=> (and (and (= Verilog__main.dataOut_64_0 (_ bv0 32)) (= Verilog__main.stageOne_64_0 (_ bv0 32)) (= Verilog__main.stageTwo_64_0 (_ bv0 32)) (= Verilog__main.tmp_stageOne_64_0 (_ bv0 32)) (= Verilog__main.tmp_stageTwo_64_0 (_ bv0 32))) (and (= Verilog__main.dataOut_64_1 (ite (not Verilog__main.reset_64_0) (bvadd Verilog__main.stageTwo_64_0 Verilog__main.stageOne_64_0) (_ bv0 32))) (= Verilog__main.stageOne_64_1 (bvadd Verilog__main.dataIn_64_0 Verilog__main.c1_64_0)) (= Verilog__main.stageTwo_64_1 (bvand Verilog__main.stageOne_64_0 Verilog__main.c2_64_0)) (= Verilog__main.tmp_stageOne_64_1 Verilog__main.stageOne_64_0) (= Verilog__main.tmp_stageTwo_64_1 Verilog__main.stageTwo_64_0))) (and (and (= Verilog__main.dataOut_64_0_39_ (_ bv0 32)) (= Verilog__main.stageOne_64_0_39_ (_ bv0 32)) (= Verilog__main.stageTwo_64_0_39_ (_ bv0 32)) (= Verilog__main.tmp_stageOne_64_0_39_ (_ bv0 32)) (= Verilog__main.tmp_stageTwo_64_0_39_ (_ bv0 32))) (and (= Verilog__main.dataOut_64_1 Verilog__main.dataOut_64_0_39_) (= Verilog__main.stageOne_64_1 Verilog__main.stageOne_64_0_39_) (= Verilog__main.stageTwo_64_1 Verilog__main.stageTwo_64_0_39_) (= Verilog__main.tmp_stageOne_64_1 Verilog__main.tmp_stageOne_64_0_39_) (= Verilog__main.tmp_stageTwo_64_1 Verilog__main.tmp_stageTwo_64_0_39_)))) ) ) ) ) ) ) ) ) ) ) ) ) ) ) ) ) ) ) ))
(check-sat)
(exit)
